
n_res = 8;
rcap = [44, 48, 51, 45, 1678, 1659, 1707, 1650];
rtype = [1, 1, 1, 1, 2, 2, 2, 2];
n_tasks = 100;
modes =  [{1, 2, 3}, {4, 5, 6}, {7, 8, 9}, {10, 11, 12}, {13, 14, 15}, {16, 17, 18}, {19, 20, 21}, {22, 23, 24}, {25, 26, 27}, {28, 29, 30}, {31, 32, 33}, {34, 35, 36}, {37, 38, 39}, {40, 41, 42}, {43, 44, 45}, {46, 47, 48}, {49, 50, 51}, {52, 53, 54}, {55, 56, 57}, {58, 59, 60}, {61, 62, 63}, {64, 65, 66}, {67, 68, 69}, {70, 71, 72}, {73, 74, 75}, {76, 77, 78}, {79, 80, 81}, {82, 83, 84}, {85, 86, 87}, {88, 89, 90}, {91, 92, 93}, {94, 95, 96}, {97, 98, 99}, {100, 101, 102}, {103, 104, 105}, {106, 107, 108}, {109, 110, 111}, {112, 113, 114}, {115, 116, 117}, {118, 119, 120}, {121, 122, 123}, {124, 125, 126}, {127, 128, 129}, {130, 131, 132}, {133, 134, 135}, {136, 137, 138}, {139, 140, 141}, {142, 143, 144}, {145, 146, 147}, {148, 149, 150}, {151, 152, 153}, {154, 155, 156}, {157, 158, 159}, {160, 161, 162}, {163, 164, 165}, {166, 167, 168}, {169, 170, 171}, {172, 173, 174}, {175, 176, 177}, {178, 179, 180}, {181, 182, 183}, {184, 185, 186}, {187, 188, 189}, {190, 191, 192}, {193, 194, 195}, {196, 197, 198}, {199, 200, 201}, {202, 203, 204}, {205, 206, 207}, {208, 209, 210}, {211, 212, 213}, {214, 215, 216}, {217, 218, 219}, {220, 221, 222}, {223, 224, 225}, {226, 227, 228}, {229, 230, 231}, {232, 233, 234}, {235, 236, 237}, {238, 239, 240}, {241, 242, 243}, {244, 245, 246}, {247, 248, 249}, {250, 251, 252}, {253, 254, 255}, {256, 257, 258}, {259, 260, 261}, {262, 263, 264}, {265, 266, 267}, {268, 269, 270}, {271, 272, 273}, {274, 275, 276}, {277, 278, 279}, {280, 281, 282}, {283, 284, 285}, {286, 287, 288}, {289, 290, 291}, {292, 293, 294}, {295, 296, 297}, {298, 299, 300}];
succ =  [{99, 66, 64, 59, 58, 51, 48, 47, 44, 39, 37, 36, 35, 34, 31, 22}, {100, 97, 94, 84, 65, 63, 60, 59, 58, 54, 53, 46, 44, 40, 28, 26}, {100, 99, 97, 96, 94, 93, 92, 90, 85, 68, 67, 66, 64, 63, 61, 60, 59, 58, 53, 47, 46, 45, 39, 36, 34}, {100, 98, 97, 96, 94, 93, 90, 85, 80, 67, 66, 64, 63, 60, 56, 54, 53, 50, 47, 44, 43, 36, 34}, {97, 96, 94, 93, 92, 85, 77, 67, 66, 59, 58, 57, 53, 45, 43, 41, 39, 36, 35, 30}, {99, 93, 68, 64, 61, 59, 47, 44, 43, 36, 34, 30, 27}, {99, 96, 67, 66, 58, 56, 50, 47, 39, 36, 23, 21}, {97, 94, 91, 90, 85, 84, 81, 68, 67, 65, 64, 61, 60, 59, 58, 56, 46, 39, 35, 30}, {99, 98, 94, 85, 68, 57, 47, 45, 43, 39, 36, 33, 26}, {100, 96, 94, 93, 91, 64, 63, 61, 58, 57, 44, 40, 39, 37, 30}, {97, 94, 89, 86, 85, 84, 68, 64, 60, 58, 54, 51, 46, 45, 44, 36, 26}, {97, 96, 95, 93, 86, 67, 65, 62, 58, 46, 44, 37, 36, 27}, {98, 96, 94, 93, 90, 88, 86, 79, 68, 67, 64, 63, 57, 56, 55, 53, 50, 49, 42}, {98, 96, 95, 94, 93, 83, 74, 67, 61, 54, 53, 47, 44, 40, 34}, {98, 97, 95, 93, 92, 91, 90, 84, 83, 79, 78, 75, 66, 65, 64, 60, 55, 52, 45, 41}, {97, 95, 94, 93, 91, 90, 88, 77, 76, 74, 65, 63, 62, 60, 59, 55, 48, 38}, {100, 96, 93, 86, 85, 72, 65, 61, 53, 44, 36, 34}, {99, 94, 91, 90, 89, 85, 83, 80, 77, 75, 72, 65, 62, 57, 55, 46, 41, 39}, {96, 95, 94, 88, 86, 85, 84, 83, 81, 80, 71, 68, 67, 64, 63, 55, 44, 37}, {98, 97, 95, 92, 91, 90, 89, 86, 85, 84, 80, 78, 77, 76, 73, 70, 66, 63, 46}, {93, 92, 91, 90, 89, 88, 86, 84, 81, 79, 78, 76, 69, 64, 63, 62, 45}, {97, 96, 94, 93, 91, 90, 87, 85, 82, 80, 79, 78, 76, 75, 74, 73, 72, 69, 65, 57}, {94, 92, 90, 85, 84, 82, 81, 79, 76, 74, 73, 72, 70, 69, 62, 59, 53}, {90, 86, 84, 82, 81, 79, 76, 75, 73, 68, 64, 56, 42}, {98, 94, 91, 88, 85, 83, 77, 76, 69, 62, 48, 45}, {96, 93, 92, 91, 90, 88, 83, 82, 81, 79, 74, 73, 71, 67, 66, 56}, {94, 92, 90, 88, 85, 84, 81, 80, 74, 70, 66, 63, 56, 53}, {99, 98, 95, 93, 88, 86, 83, 81, 56, 55, 45}, {98, 96, 93, 88, 85, 82, 79, 78, 75, 74, 73, 70, 60, 57}, {98, 89, 88, 83, 79, 75, 74, 72, 69, 62, 55, 50}, {87, 86, 85, 84, 83, 80, 79, 77, 76, 74, 72, 70, 69, 53}, {99, 97, 93, 91, 89, 85, 81, 80, 78, 77, 74, 65, 55}, {97, 89, 80, 79, 76, 75, 74, 73, 72, 70, 69, 64}, {91, 89, 87, 84, 78, 77, 76, 75, 73, 62}, {100, 95, 89, 86, 80, 76, 72, 71, 69, 63}, {88, 83, 81, 79, 76, 74, 71, 70, 55}, {79, 78, 76, 75, 74, 72, 56}, {85, 79, 78, 73, 71, 69, 57}, {86, 82, 78, 74, 73, 71, 70, 69}, {90, 87, 85, 82, 78, 76, 70, 69}, {88, 86, 82, 76, 74, 73, 70}, {92, 87, 85, 83, 77, 71, 70}, {91, 78, 73, 72, 69, 65}, {92, 79, 77, 75, 73}, {87, 80, 74, 72, 70}, {88, 87, 79, 71, 69}, {86, 84, 76, 70, 69}, {80, 78, 75, 73, 70}, {83, 81, 80, 76, 72}, {95, 78, 76, 71}, {87, 80, 75, 70}, {81, 77, 70, 69}, {89, 75, 71}, {78, 72, 69}, {82, 73}, {77, 69}, {84, 81}, {83, 70}, {86, 83}, {72, 69}, {80, 69}, {71}, {75}, {77}, {71}, {72}, {70}, {74}, {}, {}, {}, {}, {}, {}, {}, {}, {}, {}, {}, {}, {}, {}, {}, {}, {}, {}, {}, {}, {}, {}, {}, {}, {}, {}, {}, {}, {}, {}, {}, {}];
n_opt = 300;
dur = [3, 20, 27, 7, 18, 20, 2, 5, 13, 7, 24, 26, 16, 17, 22, 20, 25, 28, 3, 12, 17, 2, 12, 19, 7, 11, 14, 5, 19, 21, 2, 13, 30, 3, 5, 22, 8, 21, 22, 9, 18, 27, 1, 16, 17, 7, 9, 21, 11, 15, 24, 2, 25, 26, 8, 23, 25, 7, 12, 14, 25, 26, 28, 2, 12, 25, 1, 2, 9, 3, 10, 18, 3, 16, 30, 2, 11, 22, 12, 17, 24, 8, 14, 28, 14, 25, 28, 1, 13, 29, 8, 11, 18, 4, 11, 24, 4, 5, 9, 5, 7, 20, 1, 3, 8, 10, 11, 14, 21, 24, 28, 13, 16, 21, 12, 14, 25, 4, 26, 28, 14, 17, 30, 3, 13, 25, 13, 18, 21, 6, 11, 24, 3, 9, 27, 2, 5, 8, 2, 6, 20, 12, 22, 26, 5, 13, 29, 9, 24, 29, 5, 15, 18, 1, 2, 16, 17, 20, 30, 21, 24, 28, 10, 23, 29, 1, 18, 29, 2, 25, 26, 4, 5, 17, 9, 21, 22, 12, 16, 19, 9, 27, 29, 22, 23, 24, 7, 10, 24, 9, 18, 26, 5, 14, 29, 9, 10, 20, 13, 21, 22, 2, 13, 19, 17, 20, 22, 4, 7, 12, 10, 11, 16, 7, 10, 14, 5, 20, 27, 8, 10, 28, 8, 13, 24, 19, 28, 29, 9, 28, 29, 4, 8, 20, 6, 16, 29, 2, 3, 29, 13, 17, 22, 7, 22, 27, 17, 25, 27, 12, 21, 22, 20, 21, 23, 11, 18, 22, 5, 11, 17, 9, 16, 24, 10, 15, 28, 18, 25, 29, 19, 24, 29, 9, 14, 26, 3, 7, 12, 7, 19, 24, 4, 10, 27, 7, 9, 20, 3, 11, 17, 6, 11, 16, 4, 28, 30, 17, 20, 30];
rreq = [|1, 1, 1, 2, 1, 1, 1, 1, 1, 2, 1, 1, 5, 3, 2, 3, 3, 2, 4, 4, 4, 5, 4, 4, 5, 3, 2, 3, 2, 1, 3, 2, 1, 2, 2, 2, 5, 3, 3, 2, 1, 1, 3, 3, 3, 4, 4, 4, 3, 3, 3, 2, 2, 2, 4, 3, 3, 4, 4, 4, 1, 1, 1, 5, 5, 5, 3, 2, 2, 5, 3, 2, 5, 4, 2, 4, 3, 3, 2, 2, 2, 4, 4, 4, 4, 4, 4, 2, 2, 1, 3, 2, 2, 4, 3, 2, 2, 2, 2, 2, 2, 2, 1, 1, 1, 4, 3, 3, 2, 1, 1, 4, 4, 4, 5, 5, 5, 3, 2, 1, 4, 4, 3, 5, 5, 5, 4, 4, 3, 4, 3, 3, 4, 2, 1, 5, 4, 2, 5, 5, 5, 4, 3, 2, 5, 5, 5, 4, 4, 3, 5, 3, 3, 5, 3, 2, 3, 3, 3, 2, 2, 2, 4, 3, 2, 4, 3, 3, 3, 2, 2, 3, 3, 2, 3, 3, 2, 4, 3, 1, 2, 1, 1, 4, 4, 3, 4, 4, 4, 2, 2, 2, 1, 1, 1, 4, 3, 2, 5, 3, 3, 3, 2, 1, 4, 3, 2, 1, 1, 1, 4, 3, 3, 3, 3, 3, 4, 2, 1, 3, 3, 2, 3, 2, 2, 4, 2, 2, 4, 2, 1, 3, 1, 1, 2, 1, 1, 5, 3, 3, 3, 2, 2, 5, 4, 4, 2, 2, 1, 4, 2, 1, 5, 3, 3, 1, 1, 1, 2, 2, 2, 4, 3, 3, 5, 3, 3, 3, 3, 2, 2, 2, 2, 5, 4, 4, 3, 3, 3, 4, 3, 3, 2, 1, 1, 3, 3, 3, 4, 4, 4, 5, 4, 3, 4, 3, 3, 3, 2, 2
 |3, 2, 2, 4, 4, 3, 4, 4, 4, 1, 1, 1, 3, 2, 2, 4, 3, 3, 5, 4, 2, 4, 3, 2, 1, 1, 1, 2, 1, 1, 4, 3, 1, 4, 4, 4, 3, 3, 3, 2, 1, 1, 3, 3, 1, 5, 3, 2, 3, 2, 2, 5, 3, 3, 4, 2, 2, 3, 2, 2, 5, 5, 5, 3, 2, 2, 5, 3, 1, 3, 3, 3, 3, 2, 2, 2, 1, 1, 1, 1, 1, 4, 4, 4, 2, 2, 1, 3, 2, 1, 2, 2, 2, 4, 4, 4, 1, 1, 1, 4, 3, 2, 5, 2, 1, 4, 3, 1, 4, 3, 3, 4, 4, 4, 2, 1, 1, 4, 3, 2, 3, 3, 2, 2, 2, 2, 3, 3, 3, 4, 4, 4, 4, 3, 3, 3, 3, 3, 5, 4, 4, 1, 1, 1, 3, 2, 1, 1, 1, 1, 1, 1, 1, 2, 2, 2, 3, 2, 1, 4, 3, 2, 2, 2, 2, 4, 4, 3, 3, 3, 2, 5, 3, 3, 1, 1, 1, 3, 3, 3, 4, 3, 3, 1, 1, 1, 3, 2, 2, 4, 4, 3, 3, 3, 1, 4, 3, 2, 4, 2, 2, 4, 3, 3, 3, 2, 2, 5, 3, 3, 4, 3, 3, 4, 3, 2, 2, 2, 2, 5, 3, 3, 5, 5, 5, 5, 3, 3, 3, 3, 3, 3, 3, 2, 4, 3, 2, 1, 1, 1, 1, 1, 1, 5, 4, 4, 3, 2, 2, 3, 3, 3, 2, 1, 1, 4, 3, 2, 5, 4, 2, 4, 3, 2, 4, 4, 4, 4, 2, 2, 4, 3, 2, 3, 2, 1, 3, 2, 1, 5, 3, 3, 2, 1, 1, 3, 2, 2, 1, 1, 1, 4, 4, 4, 4, 4, 4, 5, 3, 3
 |1, 1, 1, 4, 2, 1, 2, 1, 1, 1, 1, 1, 2, 2, 2, 2, 1, 1, 4, 2, 2, 3, 3, 3, 4, 4, 3, 3, 2, 2, 2, 1, 1, 3, 3, 1, 3, 1, 1, 5, 3, 3, 3, 3, 1, 5, 4, 4, 5, 4, 4, 5, 3, 2, 2, 2, 2, 5, 5, 5, 5, 3, 3, 4, 4, 3, 4, 3, 2, 3, 3, 3, 2, 2, 2, 3, 3, 3, 2, 2, 2, 1, 1, 1, 4, 4, 4, 3, 3, 3, 3, 3, 3, 5, 5, 5, 3, 2, 2, 3, 3, 2, 4, 3, 3, 5, 5, 5, 3, 3, 3, 1, 1, 1, 4, 4, 4, 4, 3, 2, 4, 2, 1, 3, 3, 1, 1, 1, 1, 4, 3, 3, 3, 2, 2, 3, 3, 1, 5, 4, 2, 1, 1, 1, 4, 4, 4, 4, 2, 2, 2, 2, 2, 2, 2, 2, 3, 3, 3, 3, 2, 2, 3, 2, 2, 5, 4, 3, 2, 1, 1, 4, 4, 4, 4, 4, 3, 4, 3, 2, 2, 2, 2, 4, 4, 4, 5, 3, 3, 2, 1, 1, 5, 4, 2, 4, 2, 2, 4, 3, 1, 4, 3, 3, 3, 3, 3, 2, 1, 1, 2, 2, 2, 2, 2, 1, 2, 1, 1, 5, 5, 5, 4, 2, 2, 5, 5, 5, 5, 5, 5, 3, 1, 1, 5, 5, 5, 4, 2, 1, 5, 5, 5, 5, 5, 5, 2, 2, 2, 4, 2, 2, 2, 1, 1, 1, 1, 1, 4, 4, 3, 3, 3, 2, 4, 4, 4, 4, 2, 1, 4, 3, 2, 3, 2, 2, 4, 2, 2, 4, 4, 4, 5, 5, 5, 4, 3, 3, 5, 4, 4, 3, 2, 2, 4, 2, 2, 4, 4, 3
 |3, 3, 1, 2, 2, 2, 3, 3, 3, 2, 1, 1, 4, 4, 4, 5, 3, 2, 4, 4, 4, 3, 3, 2, 4, 3, 2, 3, 2, 2, 3, 2, 1, 2, 2, 2, 5, 5, 5, 5, 5, 5, 2, 1, 1, 4, 3, 3, 2, 1, 1, 4, 4, 4, 1, 1, 1, 4, 2, 2, 3, 1, 1, 2, 2, 2, 3, 3, 2, 1, 1, 1, 5, 3, 1, 1, 1, 1, 3, 3, 2, 1, 1, 1, 4, 3, 3, 4, 2, 2, 2, 1, 1, 3, 3, 3, 5, 4, 3, 3, 3, 3, 4, 3, 3, 5, 2, 2, 4, 3, 1, 3, 3, 2, 5, 5, 5, 1, 1, 1, 3, 3, 3, 3, 2, 1, 4, 3, 2, 3, 3, 1, 4, 4, 4, 4, 4, 4, 5, 4, 3, 4, 3, 3, 5, 3, 3, 4, 4, 3, 3, 3, 3, 3, 3, 3, 2, 1, 1, 3, 2, 1, 2, 2, 2, 4, 3, 3, 3, 2, 2, 2, 1, 1, 4, 4, 4, 5, 4, 3, 5, 2, 2, 5, 4, 3, 4, 3, 1, 1, 1, 1, 3, 1, 1, 3, 2, 1, 3, 2, 1, 1, 1, 1, 1, 1, 1, 5, 3, 3, 3, 2, 2, 1, 1, 1, 5, 2, 2, 2, 1, 1, 3, 2, 1, 4, 3, 2, 5, 2, 2, 2, 2, 2, 1, 1, 1, 3, 3, 3, 4, 2, 2, 5, 4, 4, 5, 4, 3, 2, 2, 1, 5, 3, 3, 4, 4, 3, 4, 3, 3, 2, 1, 1, 4, 2, 2, 4, 3, 1, 4, 4, 3, 5, 4, 3, 4, 4, 4, 1, 1, 1, 5, 3, 3, 3, 3, 3, 5, 3, 3, 4, 2, 2, 4, 2, 2, 3, 3, 2
 |28, 24, 18, 27, 25, 24, 12, 8, 6, 22, 19, 16, 24, 20, 15, 15, 8, 4, 23, 22, 22, 20, 9, 6, 24, 23, 17, 16, 11, 5, 23, 19, 19, 15, 11, 11, 13, 11, 6, 25, 17, 6, 23, 22, 17, 20, 18, 14, 24, 24, 22, 7, 5, 4, 28, 26, 25, 30, 25, 25, 18, 15, 14, 11, 11, 11, 12, 10, 10, 18, 14, 10, 28, 26, 21, 23, 20, 17, 11, 8, 6, 12, 9, 8, 11, 11, 10, 16, 12, 1, 13, 9, 8, 8, 6, 4, 15, 14, 9, 18, 14, 7, 20, 17, 10, 18, 17, 11, 27, 23, 21, 21, 14, 12, 10, 7, 3, 20, 20, 20, 28, 26, 20, 19, 17, 14, 9, 7, 6, 15, 14, 8, 12, 10, 6, 8, 8, 8, 25, 17, 6, 23, 12, 5, 11, 11, 11, 16, 16, 16, 21, 18, 17, 24, 19, 16, 25, 16, 10, 21, 18, 16, 28, 24, 19, 13, 12, 11, 7, 4, 4, 12, 7, 5, 11, 8, 1, 25, 23, 19, 27, 26, 24, 16, 9, 4, 20, 18, 16, 18, 17, 16, 17, 14, 7, 21, 20, 19, 19, 18, 17, 13, 13, 13, 8, 7, 7, 18, 16, 11, 22, 21, 20, 16, 13, 9, 28, 26, 20, 22, 14, 4, 25, 21, 16, 21, 10, 8, 16, 9, 7, 30, 25, 21, 17, 7, 7, 21, 11, 7, 25, 21, 16, 11, 9, 7, 9, 7, 6, 25, 17, 10, 8, 8, 7, 26, 19, 13, 20, 19, 13, 17, 14, 11, 7, 7, 4, 23, 13, 8, 23, 19, 14, 23, 18, 15, 8, 7, 5, 23, 21, 19, 27, 27, 27, 20, 8, 5, 7, 7, 6, 10, 10, 10, 22, 16, 14, 14, 10, 2
 |26, 23, 16, 12, 10, 9, 23, 19, 9, 16, 15, 15, 20, 12, 9, 11, 7, 4, 26, 14, 3, 24, 21, 16, 19, 13, 12, 14, 10, 3, 10, 7, 7, 19, 19, 17, 25, 23, 23, 15, 14, 4, 24, 21, 21, 2, 2, 2, 27, 20, 14, 7, 6, 6, 16, 16, 15, 20, 20, 19, 27, 21, 18, 28, 27, 27, 20, 17, 12, 16, 14, 12, 15, 15, 12, 24, 20, 18, 27, 23, 21, 11, 6, 3, 14, 14, 14, 22, 15, 7, 11, 9, 8, 23, 22, 21, 11, 9, 7, 20, 18, 16, 26, 26, 23, 17, 17, 17, 4, 3, 3, 18, 15, 12, 13, 10, 6, 15, 13, 10, 15, 9, 5, 23, 22, 21, 20, 17, 16, 13, 8, 7, 22, 20, 15, 22, 18, 16, 18, 15, 12, 10, 4, 4, 19, 19, 17, 6, 4, 1, 12, 7, 5, 26, 19, 9, 20, 20, 16, 11, 5, 3, 29, 28, 27, 4, 4, 2, 22, 19, 18, 23, 21, 16, 16, 16, 16, 24, 24, 18, 24, 23, 22, 26, 24, 21, 15, 11, 9, 24, 17, 12, 24, 24, 24, 18, 17, 16, 18, 15, 14, 3, 2, 2, 16, 9, 6, 25, 25, 25, 14, 12, 9, 13, 8, 6, 18, 13, 11, 22, 16, 2, 27, 23, 18, 11, 9, 7, 21, 19, 19, 21, 20, 18, 25, 25, 25, 26, 20, 16, 30, 29, 28, 28, 23, 21, 14, 14, 14, 5, 3, 3, 9, 7, 6, 10, 7, 4, 20, 19, 12, 6, 3, 3, 25, 24, 17, 16, 14, 12, 10, 9, 2, 19, 13, 10, 15, 15, 14, 18, 15, 15, 25, 24, 23, 28, 28, 27, 4, 3, 2, 19, 16, 12, 16, 12, 7, 14, 6, 4
 |25, 23, 23, 24, 23, 17, 23, 17, 17, 29, 20, 18, 17, 14, 13, 20, 16, 15, 23, 17, 10, 8, 7, 5, 10, 9, 6, 23, 20, 17, 27, 19, 12, 11, 9, 4, 13, 8, 1, 22, 18, 4, 9, 7, 7, 7, 7, 6, 22, 21, 13, 19, 16, 9, 26, 16, 11, 21, 11, 11, 17, 14, 14, 21, 14, 13, 23, 20, 19, 21, 18, 18, 24, 22, 22, 20, 15, 2, 30, 26, 21, 14, 6, 5, 18, 10, 9, 17, 13, 11, 7, 6, 5, 22, 13, 10, 18, 13, 8, 11, 7, 5, 19, 12, 11, 11, 11, 8, 7, 4, 3, 17, 13, 4, 10, 8, 8, 27, 15, 10, 21, 17, 16, 26, 11, 3, 12, 9, 6, 21, 18, 10, 27, 12, 9, 13, 12, 4, 22, 14, 10, 13, 12, 6, 30, 27, 26, 19, 10, 6, 15, 13, 11, 17, 14, 12, 11, 8, 7, 19, 17, 17, 25, 17, 13, 19, 17, 16, 2, 1, 1, 20, 17, 12, 28, 23, 21, 17, 15, 10, 26, 21, 20, 20, 19, 17, 25, 25, 25, 30, 29, 29, 22, 17, 9, 12, 7, 1, 20, 18, 6, 23, 21, 18, 21, 21, 18, 22, 21, 21, 9, 8, 8, 19, 17, 16, 10, 6, 2, 4, 3, 3, 20, 13, 9, 21, 19, 19, 23, 13, 5, 22, 15, 11, 15, 12, 10, 21, 14, 13, 30, 30, 30, 19, 18, 10, 21, 17, 16, 23, 13, 10, 18, 17, 16, 16, 11, 8, 11, 11, 11, 16, 14, 13, 26, 24, 22, 24, 21, 20, 16, 12, 9, 23, 20, 16, 20, 20, 11, 19, 13, 11, 15, 10, 9, 28, 26, 25, 8, 6, 6, 23, 15, 8, 15, 11, 8, 20, 19, 10
 |11, 6, 4, 27, 24, 23, 20, 19, 17, 10, 9, 7, 5, 5, 5, 15, 15, 15, 22, 22, 12, 28, 27, 26, 27, 27, 23, 19, 14, 9, 14, 8, 7, 6, 3, 1, 17, 8, 3, 22, 14, 5, 2, 2, 2, 19, 15, 14, 10, 9, 9, 18, 13, 4, 14, 14, 14, 9, 8, 4, 8, 7, 7, 13, 7, 4, 19, 19, 19, 15, 15, 14, 23, 12, 11, 27, 20, 17, 13, 13, 8, 13, 9, 5, 16, 16, 16, 28, 26, 25, 18, 11, 10, 15, 13, 13, 18, 12, 10, 15, 13, 9, 19, 18, 18, 21, 19, 18, 23, 22, 21, 6, 5, 5, 23, 16, 13, 25, 20, 14, 22, 17, 14, 12, 9, 8, 4, 2, 2, 11, 8, 7, 14, 13, 13, 17, 16, 6, 9, 6, 4, 29, 28, 28, 25, 23, 22, 20, 9, 6, 11, 9, 8, 13, 12, 9, 25, 16, 11, 17, 9, 3, 4, 4, 2, 23, 22, 18, 13, 11, 1, 27, 20, 15, 27, 22, 13, 7, 6, 6, 26, 23, 19, 7, 6, 5, 29, 26, 21, 28, 23, 13, 10, 9, 5, 26, 16, 15, 30, 29, 28, 17, 9, 4, 20, 15, 11, 9, 4, 4, 11, 10, 7, 10, 6, 3, 28, 25, 21, 23, 22, 19, 23, 19, 10, 4, 2, 1, 20, 15, 10, 27, 25, 25, 15, 13, 3, 27, 24, 21, 23, 21, 15, 23, 21, 20, 17, 9, 3, 25, 23, 23, 27, 26, 25, 15, 9, 8, 30, 28, 25, 22, 19, 17, 28, 24, 24, 9, 6, 5, 29, 27, 27, 12, 11, 11, 16, 10, 6, 24, 22, 20, 9, 9, 8, 18, 15, 11, 17, 12, 9, 26, 11, 4, 22, 15, 12, 21, 11, 9|];